Geographic Exponential Decay
20 71 271 290 135 115 274 95 173 64 50 97 236 303 74 233 27 105 32 191 55
p edge 320 1255
e 0 100 1.0
e 0 138 1.0
e 0 147 1.0
e 1 196 1.0
e 1 306 4.0
e 1 73 9.0
e 1 27 31.0
e 1 281 8.0
e 2 207 1.0
e 2 45 2.0
e 3 16 5.0
e 3 153 1.0
e 4 56 14.0
e 4 252 2.0
e 5 221 1.0
e 5 190 23.0
e 6 297 2.0
e 6 126 1.0
e 6 215 6.0
e 7 107 1.0
e 7 316 2.0
e 7 317 1.0
e 8 99 18.0
e 8 32 34.0
e 8 290 87.0
e 8 239 13.0
e 8 143 20.0
e 8 60 5.0
e 8 264 14.0
e 8 35 23.0
e 8 303 98.0
e 8 90 16.0
e 9 149 8.0
e 9 25 10.0
e 9 317 9.0
e 9 304 12.0
e 9 3 9.0
e 10 218 5.0
e 10 129 1.0
e 10 24 1.0
e 11 105 79.0
e 11 318 5.0
e 11 104 6.0
e 12 222 4.0
e 12 13 2.0
e 13 155 5.0
e 14 0 2.0
e 14 75 7.0
e 15 258 2.0
e 15 288 4.0
e 15 59 2.0
e 15 199 1.0
e 15 35 5.0
e 16 262 5.0
e 16 241 5.0
e 17 303 71.0
e 17 131 6.0
e 18 45 4.0
e 18 278 1.0
e 18 247 5.0
e 18 314 10.0
e 18 170 2.0
e 19 187 4.0
e 19 93 1.0
e 20 235 2.0
e 20 56 3.0
e 21 107 5.0
e 21 257 2.0
e 21 217 5.0
e 22 245 6.0
e 22 120 1.0
e 23 90 2.0
e 23 30 10.0
e 24 13 1.0
e 25 60 1.0
e 26 7 1.0
e 26 141 19.0
e 26 128 6.0
e 27 159 10.0
e 27 74 64.0
e 27 228 40.0
e 27 64 62.0
e 27 130 22.0
e 27 2 6.0
e 27 13 96.0
e 27 267 19.0
e 27 139 92.0
e 27 105 44.0
e 27 193 2.0
e 27 307 65.0
e 27 49 38.0
e 27 225 9.0
e 27 287 10.0
e 27 143 91.0
e 27 172 92.0
e 27 309 8.0
e 27 227 55.0
e 27 300 36.0
e 27 186 34.0
e 27 122 11.0
e 27 61 26.0
e 27 85 82.0
e 27 168 35.0
e 27 158 72.0
e 27 292 49.0
e 27 53 61.0
e 27 14 2.0
e 27 35 39.0
e 27 141 79.0
e 27 70 14.0
e 27 262 75.0
e 27 10 86.0
e 27 223 76.0
e 27 101 91.0
e 28 194 4.0
e 28 1 11.0
e 28 257 11.0
e 28 247 1.0
e 28 133 4.0
e 29 308 7.0
e 29 131 2.0
e 29 317 3.0
e 29 3 9.0
e 29 101 11.0
e 30 111 1.0
e 30 112 10.0
e 30 74 40.0
e 30 39 14.0
e 31 231 23.0
e 31 213 14.0
e 31 165 4.0
e 31 227 10.0
e 31 85 9.0
e 31 108 20.0
e 31 136 18.0
e 31 235 13.0
e 31 314 21.0
e 31 86 19.0
e 32 276 56.0
e 32 316 24.0
e 32 87 46.0
e 32 257 72.0
e 32 26 83.0
e 32 270 17.0
e 32 124 33.0
e 32 218 66.0
e 32 286 11.0
e 32 114 64.0
e 32 71 95.0
e 32 174 90.0
e 32 140 19.0
e 32 283 75.0
e 32 117 55.0
e 32 79 21.0
e 32 159 29.0
e 32 126 97.0
e 32 138 10.0
e 32 165 83.0
e 32 211 76.0
e 32 251 77.0
e 32 271 68.0
e 32 27 43.0
e 32 160 80.0
e 32 208 11.0
e 32 158 14.0
e 32 284 5.0
e 32 148 84.0
e 32 47 56.0
e 32 221 72.0
e 32 33 6.0
e 32 250 24.0
e 32 125 56.0
e 32 44 68.0
e 32 14 6.0
e 33 258 11.0
e 33 290 93.0
e 33 199 2.0
e 33 197 2.0
e 34 43 1.0
e 34 7 1.0
e 35 269 1.0
e 35 274 34.0
e 35 75 23.0
e 35 144 22.0
e 35 303 5.0
e 35 103 1.0
e 35 55 16.0
e 36 205 8.0
e 36 308 5.0
e 36 251 6.0
e 37 16 1.0
e 37 315 12.0
e 37 166 3.0
e 38 19 1.0
e 38 217 1.0
e 39 188 20.0
e 39 178 49.0
e 39 268 16.0
e 39 309 20.0
e 39 14 9.0
e 39 285 22.0
e 39 69 9.0
e 39 4 16.0
e 39 27 87.0
e 40 131 8.0
e 40 308 2.0
e 40 84 3.0
e 41 159 9.0
e 41 128 8.0
e 41 13 11.0
e 41 231 1.0
e 41 218 5.0
e 42 117 8.0
e 42 194 5.0
e 42 99 10.0
e 42 302 9.0
e 42 140 1.0
e 43 17 2.0
e 44 315 7.0
e 44 43 3.0
e 46 252 2.0
e 46 75 2.0
e 47 98 1.0
e 48 68 1.0
e 48 8 6.0
e 49 149 1.0
e 50 113 48.0
e 50 310 11.0
e 50 7 24.0
e 50 258 31.0
e 50 215 51.0
e 50 75 40.0
e 50 8 16.0
e 50 265 30.0
e 50 143 9.0
e 50 80 41.0
e 50 31 19.0
e 50 252 61.0
e 50 3 81.0
e 50 9 35.0
e 50 162 18.0
e 50 297 72.0
e 50 135 89.0
e 50 228 22.0
e 50 177 43.0
e 50 82 58.0
e 50 156 51.0
e 50 231 68.0
e 50 55 71.0
e 50 238 57.0
e 50 191 93.0
e 50 213 99.0
e 50 223 73.0
e 50 199 47.0
e 50 145 71.0
e 50 167 31.0
e 50 318 91.0
e 50 218 50.0
e 50 67 44.0
e 50 36 92.0
e 50 21 81.0
e 50 206 55.0
e 50 277 17.0
e 51 229 2.0
e 51 145 24.0
e 52 273 2.0
e 52 276 4.0
e 52 188 1.0
e 53 41 4.0
e 54 293 1.0
e 54 50 94.0
e 54 186 2.0
e 55 265 29.0
e 55 9 19.0
e 55 235 32.0
e 55 110 15.0
e 55 86 76.0
e 55 218 37.0
e 55 284 14.0
e 55 185 95.0
e 55 222 81.0
e 55 37 13.0
e 55 139 36.0
e 55 238 7.0
e 55 219 71.0
e 55 250 24.0
e 55 285 53.0
e 55 224 86.0
e 55 25 1.0
e 55 306 17.0
e 55 138 17.0
e 55 270 60.0
e 55 32 38.0
e 55 17 89.0
e 55 82 38.0
e 55 183 1.0
e 55 12 31.0
e 55 276 92.0
e 55 75 91.0
e 55 225 32.0
e 55 179 38.0
e 55 42 37.0
e 55 192 93.0
e 55 271 39.0
e 55 223 42.0
e 55 200 12.0
e 55 205 64.0
e 56 180 16.0
e 56 127 2.0
e 56 223 1.0
e 56 102 9.0
e 56 90 12.0
e 56 194 14.0
e 56 234 24.0
e 56 159 20.0
e 57 49 1.0
e 57 237 1.0
e 58 135 63.0
e 58 89 5.0
e 58 116 7.0
e 58 301 44.0
e 58 234 10.0
e 59 22 5.0
e 59 55 64.0
e 61 81 5.0
e 62 235 1.0
e 62 251 2.0
e 63 68 1.0
e 63 286 2.0
e 64 268 51.0
e 64 86 7.0
e 64 80 13.0
e 64 179 55.0
e 64 55 34.0
e 64 263 12.0
e 64 165 22.0
e 64 159 72.0
e 64 180 84.0
e 64 285 49.0
e 64 300 23.0
e 64 154 72.0
e 64 201 96.0
e 64 161 35.0
e 64 13 33.0
e 64 315 61.0
e 64 166 98.0
e 64 195 35.0
e 64 160 3.0
e 64 107 99.0
e 64 175 99.0
e 64 287 63.0
e 64 147 20.0
e 64 41 19.0
e 64 264 32.0
e 64 267 21.0
e 64 213 95.0
e 64 65 96.0
e 64 102 68.0
e 64 289 77.0
e 64 291 11.0
e 64 133 41.0
e 64 167 27.0
e 64 210 11.0
e 64 121 35.0
e 64 120 41.0
e 65 135 51.0
e 66 264 2.0
e 66 107 1.0
e 67 21 3.0
e 68 111 2.0
e 69 209 20.0
e 69 50 85.0
e 70 316 1.0
e 71 202 35.0
e 71 311 47.0
e 71 157 61.0
e 71 52 44.0
e 71 251 79.0
e 71 9 11.0
e 71 109 69.0
e 71 138 8.0
e 71 201 42.0
e 71 7 70.0
e 71 229 50.0
e 71 81 60.0
e 71 177 98.0
e 71 187 76.0
e 71 86 43.0
e 71 22 25.0
e 71 25 4.0
e 71 29 72.0
e 71 100 2.0
e 71 151 46.0
e 71 188 59.0
e 71 110 6.0
e 71 306 72.0
e 71 106 98.0
e 71 11 65.0
e 71 271 40.0
e 71 233 40.0
e 71 208 57.0
e 71 272 62.0
e 71 228 17.0
e 71 33 2.0
e 71 303 27.0
e 71 240 7.0
e 71 276 14.0
e 71 77 8.0
e 71 27 73.0
e 72 93 6.0
e 72 168 2.0
e 72 88 4.0
e 73 176 1.0
e 74 8 96.0
e 74 19 50.0
e 74 261 43.0
e 74 227 89.0
e 74 144 8.0
e 74 177 36.0
e 74 272 19.0
e 74 138 8.0
e 74 45 38.0
e 74 254 66.0
e 74 266 35.0
e 74 53 30.0
e 74 21 31.0
e 74 26 16.0
e 74 223 14.0
e 74 70 8.0
e 74 258 23.0
e 74 285 77.0
e 74 6 13.0
e 74 311 40.0
e 74 212 84.0
e 74 126 77.0
e 74 24 39.0
e 74 249 16.0
e 74 197 23.0
e 74 214 79.0
e 74 76 11.0
e 74 2 34.0
e 74 58 8.0
e 74 164 6.0
e 74 83 53.0
e 74 312 31.0
e 74 72 52.0
e 74 10 34.0
e 74 165 9.0
e 76 124 1.0
e 77 266 15.0
e 78 60 2.0
e 78 142 2.0
e 79 121 2.0
e 80 65 1.0
e 81 116 3.0
e 82 52 20.0
e 82 56 4.0
e 82 74 3.0
e 82 2 16.0
e 82 34 24.0
e 82 225 1.0
e 82 264 11.0
e 82 44 11.0
e 83 275 2.0
e 83 70 6.0
e 84 56 7.0
e 84 204 1.0
e 87 157 6.0
e 88 98 3.0
e 88 213 24.0
e 88 70 4.0
e 88 46 16.0
e 88 49 21.0
e 88 303 6.0
e 88 302 13.0
e 88 87 10.0
e 88 24 3.0
e 89 297 1.0
e 91 275 2.0
e 91 261 4.0
e 92 283 2.0
e 92 213 4.0
e 93 53 1.0
e 93 90 4.0
e 93 89 9.0
e 94 95 21.0
e 94 113 1.0
e 94 65 10.0
e 94 184 1.0
e 94 149 6.0
e 95 76 68.0
e 95 105 21.0
e 95 131 25.0
e 95 290 74.0
e 95 9 5.0
e 95 213 76.0
e 95 151 60.0
e 95 291 85.0
e 95 277 27.0
e 95 16 60.0
e 95 175 95.0
e 95 300 56.0
e 95 111 49.0
e 95 136 42.0
e 95 318 12.0
e 95 303 81.0
e 95 294 34.0
e 95 272 68.0
e 95 15 8.0
e 95 2 95.0
e 95 87 5.0
e 95 254 11.0
e 95 137 29.0
e 95 216 86.0
e 95 106 81.0
e 95 266 20.0
e 95 5 70.0
e 95 42 50.0
e 95 150 67.0
e 95 274 5.0
e 95 210 67.0
e 95 60 87.0
e 95 25 69.0
e 95 259 99.0
e 95 127 30.0
e 95 233 32.0
e 96 108 2.0
e 96 69 3.0
e 97 218 54.0
e 97 285 72.0
e 97 202 82.0
e 97 238 24.0
e 97 221 30.0
e 97 235 76.0
e 97 17 87.0
e 97 254 53.0
e 97 166 67.0
e 97 87 36.0
e 97 252 32.0
e 97 96 27.0
e 97 153 13.0
e 97 296 84.0
e 97 287 1.0
e 97 239 72.0
e 97 73 100.0
e 97 309 93.0
e 97 240 94.0
e 97 98 40.0
e 97 184 8.0
e 97 47 43.0
e 97 307 78.0
e 97 180 38.0
e 97 45 51.0
e 97 248 78.0
e 97 93 45.0
e 97 173 64.0
e 97 310 34.0
e 97 43 45.0
e 97 281 55.0
e 97 286 56.0
e 97 150 67.0
e 97 1 28.0
e 97 226 66.0
e 97 214 65.0
e 97 75 9.0
e 102 65 3.0
e 103 225 1.0
e 104 248 6.0
e 104 139 3.0
e 104 42 6.0
e 104 286 12.0
e 105 33 44.0
e 105 107 75.0
e 105 239 42.0
e 105 203 41.0
e 105 116 74.0
e 105 100 80.0
e 105 316 16.0
e 105 132 91.0
e 105 146 60.0
e 105 20 7.0
e 105 39 95.0
e 105 181 90.0
e 105 312 37.0
e 105 35 64.0
e 105 90 60.0
e 105 209 89.0
e 105 237 56.0
e 105 182 4.0
e 105 264 78.0
e 105 266 50.0
e 105 265 43.0
e 105 255 6.0
e 105 317 68.0
e 105 9 78.0
e 105 104 76.0
e 105 174 84.0
e 105 240 60.0
e 105 29 80.0
e 105 64 34.0
e 105 7 15.0
e 105 106 39.0
e 105 165 65.0
e 105 4 4.0
e 105 113 61.0
e 109 294 1.0
e 109 168 1.0
e 110 79 2.0
e 112 15 7.0
e 114 315 4.0
e 115 13 99.0
e 115 302 47.0
e 115 140 15.0
e 115 62 80.0
e 115 86 65.0
e 115 40 28.0
e 115 6 42.0
e 115 118 37.0
e 115 271 91.0
e 115 161 24.0
e 115 299 9.0
e 115 268 56.0
e 115 38 68.0
e 115 203 95.0
e 115 141 61.0
e 115 49 12.0
e 115 209 47.0
e 115 15 4.0
e 115 108 2.0
e 115 248 95.0
e 115 150 69.0
e 115 279 31.0
e 115 212 18.0
e 115 76 13.0
e 115 32 18.0
e 115 11 19.0
e 115 0 4.0
e 115 305 73.0
e 115 75 15.0
e 115 120 67.0
e 115 33 35.0
e 115 135 18.0
e 115 170 53.0
e 115 294 77.0
e 115 9 46.0
e 115 127 51.0
e 115 105 61.0
e 117 104 7.0
e 118 220 1.0
e 118 41 10.0
e 119 231 2.0
e 119 62 1.0
e 121 244 8.0
e 121 35 22.0
e 121 205 20.0
e 121 235 14.0
e 121 107 24.0
e 121 201 11.0
e 121 102 3.0
e 121 308 6.0
e 122 74 26.0
e 122 164 9.0
e 122 163 3.0
e 122 265 5.0
e 123 292 19.0
e 123 251 16.0
e 123 117 5.0
e 123 224 15.0
e 123 226 11.0
e 123 192 8.0
e 123 126 10.0
e 123 318 1.0
e 123 180 12.0
e 123 291 7.0
e 124 166 3.0
e 125 148 12.0
e 125 17 17.0
e 125 302 19.0
e 125 224 1.0
e 125 308 18.0
e 125 142 10.0
e 125 246 2.0
e 125 269 1.0
e 125 149 12.0
e 128 80 5.0
e 128 145 5.0
e 128 202 6.0
e 129 83 5.0
e 130 129 1.0
e 131 42 7.0
e 132 306 1.0
e 133 10 1.0
e 134 273 20.0
e 134 64 38.0
e 134 70 9.0
e 134 31 19.0
e 134 312 24.0
e 134 118 13.0
e 134 233 35.0
e 134 306 23.0
e 134 20 17.0
e 134 66 15.0
e 135 175 98.0
e 135 249 66.0
e 135 229 21.0
e 135 166 78.0
e 135 178 26.0
e 135 224 16.0
e 135 205 54.0
e 135 239 8.0
e 135 41 64.0
e 135 94 90.0
e 135 280 76.0
e 135 147 71.0
e 135 120 23.0
e 135 232 69.0
e 135 144 79.0
e 135 222 31.0
e 135 279 30.0
e 135 68 54.0
e 135 303 65.0
e 135 272 41.0
e 135 268 66.0
e 135 316 78.0
e 135 114 67.0
e 135 121 75.0
e 135 240 56.0
e 135 117 19.0
e 135 15 64.0
e 135 23 79.0
e 135 66 7.0
e 135 214 19.0
e 135 96 56.0
e 135 81 67.0
e 135 189 6.0
e 137 110 12.0
e 137 109 8.0
e 137 252 11.0
e 137 242 10.0
e 139 225 8.0
e 139 253 1.0
e 141 92 45.0
e 141 86 11.0
e 141 161 31.0
e 141 232 33.0
e 141 37 18.0
e 141 223 27.0
e 141 170 47.0
e 141 187 8.0
e 141 160 4.0
e 141 202 13.0
e 141 283 12.0
e 141 257 4.0
e 141 164 26.0
e 141 6 33.0
e 141 110 21.0
e 141 165 40.0
e 142 160 1.0
e 145 61 23.0
e 145 269 1.0
e 145 18 18.0
e 145 52 9.0
e 145 112 16.0
e 145 3 15.0
e 145 6 20.0
e 146 133 1.0
e 151 275 2.0
e 151 136 9.0
e 151 1 2.0
e 152 278 10.0
e 152 129 13.0
e 152 225 17.0
e 152 285 22.0
e 152 240 22.0
e 152 150 1.0
e 152 142 14.0
e 152 32 92.0
e 152 205 7.0
e 152 183 10.0
e 154 133 1.0
e 155 247 4.0
e 155 1 1.0
e 156 271 5.0
e 156 173 89.0
e 157 240 1.0
e 162 196 1.0
e 162 120 5.0
e 163 95 32.0
e 163 73 1.0
e 169 3 1.0
e 169 292 1.0
e 171 113 1.0
e 171 302 1.0
e 172 61 1.0
e 173 311 92.0
e 173 280 83.0
e 173 78 43.0
e 173 146 48.0
e 173 112 79.0
e 173 145 27.0
e 173 289 25.0
e 173 130 53.0
e 173 210 76.0
e 173 154 8.0
e 173 266 33.0
e 173 271 72.0
e 173 300 67.0
e 173 187 61.0
e 173 38 57.0
e 173 258 29.0
e 173 134 31.0
e 173 11 21.0
e 173 232 69.0
e 173 68 80.0
e 173 116 74.0
e 173 316 22.0
e 173 110 84.0
e 173 249 28.0
e 173 202 94.0
e 173 111 47.0
e 173 292 74.0
e 173 231 95.0
e 173 85 68.0
e 173 90 23.0
e 173 222 69.0
e 173 17 91.0
e 173 295 48.0
e 173 61 2.0
e 173 15 20.0
e 174 102 1.0
e 175 84 11.0
e 175 6 6.0
e 176 213 2.0
e 177 247 7.0
e 177 189 10.0
e 177 119 8.0
e 177 309 7.0
e 177 176 13.0
e 177 297 24.0
e 177 13 21.0
e 178 183 5.0
e 178 169 41.0
e 178 58 32.0
e 178 217 43.0
e 178 287 18.0
e 178 148 7.0
e 178 16 29.0
e 178 134 34.0
e 178 118 48.0
e 178 6 34.0
e 178 108 47.0
e 178 271 46.0
e 178 314 32.0
e 178 17 3.0
e 178 24 30.0
e 178 248 46.0
e 178 55 34.0
e 179 16 11.0
e 179 209 24.0
e 179 157 13.0
e 179 49 9.0
e 179 19 21.0
e 179 217 21.0
e 179 147 22.0
e 179 8 14.0
e 181 255 4.0
e 181 97 92.0
e 182 41 3.0
e 182 129 3.0
e 182 279 6.0
e 182 292 10.0
e 184 240 4.0
e 185 2 2.0
e 186 43 3.0
e 190 288 3.0
e 190 157 6.0
e 190 179 2.0
e 190 15 25.0
e 190 114 2.0
e 190 279 13.0
e 190 111 20.0
e 190 11 17.0
e 190 38 25.0
e 191 197 67.0
e 191 286 46.0
e 191 247 89.0
e 191 186 6.0
e 191 243 40.0
e 191 246 80.0
e 191 248 24.0
e 191 45 10.0
e 191 249 75.0
e 191 148 50.0
e 191 85 22.0
e 191 185 47.0
e 191 115 63.0
e 191 261 81.0
e 191 55 82.0
e 191 223 97.0
e 191 20 32.0
e 191 34 59.0
e 191 178 31.0
e 191 42 34.0
e 191 251 41.0
e 191 141 52.0
e 191 142 75.0
e 191 299 57.0
e 191 2 22.0
e 191 317 77.0
e 191 164 19.0
e 191 118 62.0
e 191 179 34.0
e 191 207 48.0
e 191 262 69.0
e 191 180 48.0
e 191 32 29.0
e 191 192 68.0
e 191 237 65.0
e 191 156 56.0
e 193 289 1.0
e 195 67 5.0
e 195 40 2.0
e 198 299 2.0
e 198 112 2.0
e 198 285 6.0
e 198 19 3.0
e 198 192 11.0
e 200 42 3.0
e 201 59 11.0
e 201 200 9.0
e 201 116 10.0
e 201 217 22.0
e 201 96 10.0
e 201 33 9.0
e 201 267 16.0
e 203 257 6.0
e 204 299 1.0
e 204 237 4.0
e 206 273 9.0
e 206 33 12.0
e 206 97 30.0
e 206 48 1.0
e 209 103 15.0
e 209 258 3.0
e 209 232 6.0
e 209 200 9.0
e 209 24 9.0
e 209 82 6.0
e 211 171 4.0
e 211 141 11.0
e 211 19 2.0
e 211 126 2.0
e 212 137 3.0
e 216 238 1.0
e 216 90 4.0
e 219 166 8.0
e 219 33 9.0
e 219 271 34.0
e 219 67 6.0
e 220 162 4.0
e 226 27 90.0
e 226 167 10.0
e 226 24 8.0
e 226 212 8.0
e 226 129 8.0
e 226 25 4.0
e 226 275 19.0
e 226 176 22.0
e 230 27 16.0
e 230 181 6.0
e 230 311 4.0
e 233 192 24.0
e 233 6 44.0
e 233 267 33.0
e 233 86 92.0
e 233 188 25.0
e 233 182 51.0
e 233 168 75.0
e 233 102 92.0
e 233 124 46.0
e 233 143 20.0
e 233 140 3.0
e 233 135 56.0
e 233 214 96.0
e 233 213 22.0
e 233 89 81.0
e 233 211 47.0
e 233 215 12.0
e 233 81 90.0
e 233 231 5.0
e 233 295 50.0
e 233 260 81.0
e 233 216 99.0
e 233 265 98.0
e 233 244 13.0
e 233 303 45.0
e 233 80 54.0
e 233 255 13.0
e 233 296 58.0
e 233 308 90.0
e 233 97 12.0
e 233 34 1.0
e 233 87 21.0
e 233 288 33.0
e 233 96 51.0
e 234 11 4.0
e 236 74 38.0
e 236 99 15.0
e 236 189 5.0
e 236 227 21.0
e 236 214 65.0
e 236 206 61.0
e 236 317 61.0
e 236 26 58.0
e 236 265 15.0
e 236 303 64.0
e 236 297 10.0
e 236 127 60.0
e 236 226 45.0
e 236 59 6.0
e 236 194 95.0
e 236 171 36.0
e 236 284 91.0
e 236 49 66.0
e 236 106 93.0
e 236 177 44.0
e 236 38 52.0
e 236 157 42.0
e 236 260 43.0
e 236 168 88.0
e 236 63 87.0
e 236 188 55.0
e 236 249 69.0
e 236 237 14.0
e 236 187 8.0
e 236 316 65.0
e 236 72 95.0
e 236 271 80.0
e 236 54 73.0
e 236 266 5.0
e 236 251 71.0
e 236 119 76.0
e 236 290 33.0
e 241 157 5.0
e 242 58 6.0
e 243 117 1.0
e 243 169 3.0
e 243 115 65.0
e 243 9 6.0
e 245 79 8.0
e 245 198 9.0
e 245 226 23.0
e 245 62 10.0
e 253 104 8.0
e 253 96 3.0
e 253 313 10.0
e 253 182 3.0
e 256 274 9.0
e 256 90 2.0
e 259 271 99.0
e 260 84 1.0
e 260 143 4.0
e 260 2 9.0
e 262 182 3.0
e 262 71 27.0
e 263 268 1.0
e 266 167 2.0
e 266 243 20.0
e 266 244 2.0
e 266 170 3.0
e 267 13 1.0
e 271 247 93.0
e 271 315 52.0
e 271 3 55.0
e 271 74 37.0
e 271 270 43.0
e 271 216 32.0
e 271 253 89.0
e 271 183 77.0
e 271 194 95.0
e 271 309 28.0
e 271 31 49.0
e 271 76 40.0
e 271 205 54.0
e 271 310 65.0
e 271 256 17.0
e 271 116 94.0
e 271 95 70.0
e 271 188 70.0
e 271 311 8.0
e 271 274 71.0
e 271 122 28.0
e 271 149 85.0
e 271 165 10.0
e 271 249 68.0
e 271 231 83.0
e 271 65 45.0
e 271 1 85.0
e 274 308 6.0
e 274 251 29.0
e 274 147 85.0
e 274 29 21.0
e 274 141 70.0
e 274 116 78.0
e 274 113 75.0
e 274 295 65.0
e 274 65 51.0
e 274 267 53.0
e 274 155 8.0
e 274 205 19.0
e 274 167 4.0
e 274 162 88.0
e 274 94 41.0
e 274 206 90.0
e 274 185 20.0
e 274 196 99.0
e 274 114 84.0
e 274 240 70.0
e 274 169 2.0
e 274 197 25.0
e 274 215 50.0
e 274 260 95.0
e 274 16 51.0
e 274 315 57.0
e 274 279 97.0
e 274 104 7.0
e 274 146 67.0
e 274 22 16.0
e 274 221 45.0
e 274 207 45.0
e 274 108 99.0
e 277 108 1.0
e 278 243 3.0
e 280 99 2.0
e 281 87 3.0
e 282 89 10.0
e 282 211 21.0
e 282 69 18.0
e 282 117 1.0
e 282 295 49.0
e 282 91 16.0
e 282 191 39.0
e 282 154 7.0
e 282 226 4.0
e 282 115 87.0
e 290 195 25.0
e 290 145 59.0
e 290 169 52.0
e 290 207 17.0
e 290 79 76.0
e 290 196 39.0
e 290 148 59.0
e 290 302 62.0
e 290 226 17.0
e 290 122 85.0
e 290 242 68.0
e 290 265 41.0
e 290 84 79.0
e 290 143 69.0
e 290 155 53.0
e 290 167 33.0
e 290 87 61.0
e 290 251 67.0
e 290 159 89.0
e 290 44 100.0
e 290 70 25.0
e 290 316 19.0
e 290 310 75.0
e 290 146 56.0
e 290 289 12.0
e 290 130 7.0
e 290 86 42.0
e 290 131 23.0
e 290 62 77.0
e 290 220 7.0
e 290 119 51.0
e 290 91 55.0
e 290 82 79.0
e 293 159 1.0
e 295 291 44.0
e 295 145 1.0
e 295 236 30.0
e 295 246 42.0
e 295 208 45.0
e 295 203 27.0
e 295 58 16.0
e 295 197 37.0
e 295 161 3.0
e 295 86 22.0
e 295 315 43.0
e 295 32 98.0
e 295 70 49.0
e 295 213 37.0
e 295 46 22.0
e 298 234 4.0
e 298 90 4.0
e 298 245 1.0
e 298 209 17.0
e 298 76 3.0
e 300 222 7.0
e 301 12 18.0
e 301 296 4.0
e 301 15 4.0
e 301 164 14.0
e 301 37 10.0
e 301 156 16.0
e 301 133 25.0
e 301 99 42.0
e 301 65 47.0
e 301 281 45.0
e 301 190 38.0
e 301 273 32.0
e 301 95 75.0
e 301 194 43.0
e 301 29 17.0
e 301 271 17.0
e 301 103 10.0
e 301 256 42.0
e 303 282 73.0
e 303 180 86.0
e 303 269 82.0
e 303 270 38.0
e 303 117 43.0
e 303 238 2.0
e 303 255 83.0
e 303 102 36.0
e 303 241 84.0
e 303 38 88.0
e 303 132 50.0
e 303 291 98.0
e 303 230 91.0
e 303 219 30.0
e 303 205 76.0
e 303 299 50.0
e 303 136 29.0
e 303 239 47.0
e 303 89 82.0
e 303 100 83.0
e 303 240 50.0
e 303 232 85.0
e 303 139 92.0
e 303 185 11.0
e 303 242 47.0
e 303 285 100.0
e 303 308 43.0
e 303 103 39.0
e 304 219 8.0
e 304 265 6.0
e 305 232 5.0
e 305 261 1.0
e 313 207 1.0
e 314 147 12.0
e 314 233 77.0
e 319 214 1.0
e 319 203 1.0
